3935,2195,1353,882,945,1539,1590,1060,1010,990,830,1155,1536,1263,1019,995,812,874,1213,1370,1081,964,914,821,953,1311,1301,995,957,893,805,1037,1325,1187
3926,2127,1318,902,899,1563,1736,1135,1102,1009,841,1161,1649,1358,995,1047,838,894,1307,1468,1066,974,939,851,1036
3938,2144,1267,863,914,1555,1608,1026,1077,921,820,1142,1488,1195,913,985,836,932,1429,1500,1012,1025,924,800,1125,1459,1164,939,978,814,899,1324,1380,989,958